data;
param: ORDERS: orderLengths  orderNum  maxRelax :=
1  70  4  0
2  30  3  0
3  37  8  7
4  19  20  0
;
param: STOCK: stockLengths stockNum stockCost :=
1  100  10	1
2  150  10	1
;

param relaxCostMultiplier := 1;